p cnf 20 18
1 2 0
3 4 0
5 6 0
7 8 0
-1 -4 9 10 0
-2 -3 9 10 0
-3 -6 11 12 0
-4 -5 11 12 0
-5 -8 13 14 0
-6 -7 13 14 0
-9 -12 15 16 0
-10 -11 15 16 0
-11 -14 17 18 0
-12 -13 17 18 0
-15 -18 19 20 0
-16 -17 19 20 0
-19 0
-20 0